(set-logic HORN)
(declare-fun state (Int (Array Int Int) (Array Int Int) (Array Int Int) (Array Int Int) Int Int (Array Int Int) (Array Int Int) Int Int Int Int Int Int Int Int Int Int Int Int Int Int Int Int Int Int Int Int Int Int Bool Bool Bool Bool (Array Int Int)) Bool)
(assert (forall ((|hhv_ULTIMATE.start_L19_0_Int| Int) (|hbv_ULTIMATE.start_L16-4_1_Array_Int_Int| (Array Int Int)) (|hhv_ULTIMATE.start_L19_2_Array_Int_Int| (Array Int Int)) (|hhv_ULTIMATE.start_L19_3_Array_Int_Array_Int_Int| (Array Int Int)) (|hhv_ULTIMATE.start_L19_4_Array_Int_Array_Int_Int| (Array Int Int)) (|hhv_ULTIMATE.start_L19_5_Int| Int) (|hhv_ULTIMATE.start_L19_6_Int| Int) (|hhv_ULTIMATE.start_L19_7_Array_Int_Int| (Array Int Int)) (|hhv_ULTIMATE.start_L19_8_Array_Int_Int| (Array Int Int)) (|hhv_ULTIMATE.start_L19_9_Int| Int) (|hhv_ULTIMATE.start_L19_10_Int| Int) (|hhv_ULTIMATE.start_L19_11_Int| Int) (|hbv_ULTIMATE.start_L16-4_12_Int| Int) (|hbv_ULTIMATE.start_L16-4_13_Int| Int) (|hhv_ULTIMATE.start_L19_14_Int| Int) (|hhv_ULTIMATE.start_L19_15_Int| Int) (|hhv_ULTIMATE.start_L19_16_Int| Int) (|hhv_ULTIMATE.start_L19_17_Int| Int) (|hhv_ULTIMATE.start_L19_18_Int| Int) (|hhv_ULTIMATE.start_L19_19_Int| Int) (|hhv_ULTIMATE.start_L19_20_Int| Int) (|hhv_ULTIMATE.start_L19_21_Int| Int) (|hhv_ULTIMATE.start_L19_22_Int| Int) (|hhv_ULTIMATE.start_L19_23_Int| Int) (|hbv_ULTIMATE.start_L16-4_24_Int| Int) (|hhv_ULTIMATE.start_L19_25_Int| Int) (|hbv_ULTIMATE.start_L16-4_26_Int| Int) (|hhv_ULTIMATE.start_L19_27_Int| Int) (|hbv_ULTIMATE.start_L16-4_28_Int| Int) (|hhv_ULTIMATE.start_L19_29_Int| Int) (|hhv_ULTIMATE.start_L19_30_Int| Int) (|hhv_ULTIMATE.start_L19_31_Bool| Bool) (|.loc.4| Bool) (|.loc.5| Bool) (|.loc.6| Bool) (|hbv_ULTIMATE.start_L-1_1_Array_Int_Int| (Array Int Int)) (|.x.408| Bool) (|.x.387| Int) (|.x.385| (Array Int Int)) (|.x.383| Int) (|.x.381| (Array Int Int)) (|.x.377| Int) (|.x.379| (Array Int Int)) (|.x.403| Int) (|.x.378| (Array Int Int)) (|.x.400| Int) (|.loc.7| Bool) (|.x.405| Int) (|.x.401| Int) (|.x.390| Int) (|.x.389| Int) (|.x.396| Int) (|.x.380| (Array Int Int)) (|.x.399| Int) (|.x.406| Int) (|.loc.9| Bool) (|.loc.8| Bool) (|.x.402| Int) (|.x.391| Int) (|.x.395| Int) (|.x.407| Int) (|.x.404| Int) (|.x.398| Int) (|.x.397| Int) (|.x.394| Int) (|.x.393| Int) (|.x.392| Int) (|.x.388| Int) (|.x.386| Int) (|.x.382| Int) (|.x.384| (Array Int Int)) (|.xtv.1| (Array Int Int))) (=> (and (and (and (not .loc.5) (not .loc.4)) (not .loc.6)) (and (and (and (and (and (= hbv_ULTIMATE.start_L16-4_1_Array_Int_Int hhv_ULTIMATE.start_L19_2_Array_Int_Int) (= hhv_ULTIMATE.start_L19_7_Array_Int_Int hhv_ULTIMATE.start_L19_8_Array_Int_Int)) (= hhv_ULTIMATE.start_L19_5_Int hhv_ULTIMATE.start_L19_6_Int)) (= hhv_ULTIMATE.start_L19_9_Int hhv_ULTIMATE.start_L19_10_Int)) (not hhv_ULTIMATE.start_L19_31_Bool)) (= hhv_ULTIMATE.start_L19_3_Array_Int_Array_Int_Int hhv_ULTIMATE.start_L19_4_Array_Int_Array_Int_Int))) (state |hhv_ULTIMATE.start_L19_0_Int| |hbv_ULTIMATE.start_L16-4_1_Array_Int_Int| |hhv_ULTIMATE.start_L19_2_Array_Int_Int| |hhv_ULTIMATE.start_L19_3_Array_Int_Array_Int_Int| |hhv_ULTIMATE.start_L19_4_Array_Int_Array_Int_Int| |hhv_ULTIMATE.start_L19_5_Int| |hhv_ULTIMATE.start_L19_6_Int| |hhv_ULTIMATE.start_L19_7_Array_Int_Int| |hhv_ULTIMATE.start_L19_8_Array_Int_Int| |hhv_ULTIMATE.start_L19_9_Int| |hhv_ULTIMATE.start_L19_10_Int| |hhv_ULTIMATE.start_L19_11_Int| |hbv_ULTIMATE.start_L16-4_12_Int| |hbv_ULTIMATE.start_L16-4_13_Int| |hhv_ULTIMATE.start_L19_14_Int| |hhv_ULTIMATE.start_L19_15_Int| |hhv_ULTIMATE.start_L19_16_Int| |hhv_ULTIMATE.start_L19_17_Int| |hhv_ULTIMATE.start_L19_18_Int| |hhv_ULTIMATE.start_L19_19_Int| |hhv_ULTIMATE.start_L19_20_Int| |hhv_ULTIMATE.start_L19_21_Int| |hhv_ULTIMATE.start_L19_22_Int| |hhv_ULTIMATE.start_L19_23_Int| |hbv_ULTIMATE.start_L16-4_24_Int| |hhv_ULTIMATE.start_L19_25_Int| |hbv_ULTIMATE.start_L16-4_26_Int| |hhv_ULTIMATE.start_L19_27_Int| |hbv_ULTIMATE.start_L16-4_28_Int| |hhv_ULTIMATE.start_L19_29_Int| |hhv_ULTIMATE.start_L19_30_Int| |hhv_ULTIMATE.start_L19_31_Bool| |.loc.4| |.loc.5| |.loc.6| |hbv_ULTIMATE.start_L-1_1_Array_Int_Int|))))
(assert (forall ((|hhv_ULTIMATE.start_L19_0_Int| Int) (|hbv_ULTIMATE.start_L16-4_1_Array_Int_Int| (Array Int Int)) (|hhv_ULTIMATE.start_L19_2_Array_Int_Int| (Array Int Int)) (|hhv_ULTIMATE.start_L19_3_Array_Int_Array_Int_Int| (Array Int Int)) (|hhv_ULTIMATE.start_L19_4_Array_Int_Array_Int_Int| (Array Int Int)) (|hhv_ULTIMATE.start_L19_5_Int| Int) (|hhv_ULTIMATE.start_L19_6_Int| Int) (|hhv_ULTIMATE.start_L19_7_Array_Int_Int| (Array Int Int)) (|hhv_ULTIMATE.start_L19_8_Array_Int_Int| (Array Int Int)) (|hhv_ULTIMATE.start_L19_9_Int| Int) (|hhv_ULTIMATE.start_L19_10_Int| Int) (|hhv_ULTIMATE.start_L19_11_Int| Int) (|hbv_ULTIMATE.start_L16-4_12_Int| Int) (|hbv_ULTIMATE.start_L16-4_13_Int| Int) (|hhv_ULTIMATE.start_L19_14_Int| Int) (|hhv_ULTIMATE.start_L19_15_Int| Int) (|hhv_ULTIMATE.start_L19_16_Int| Int) (|hhv_ULTIMATE.start_L19_17_Int| Int) (|hhv_ULTIMATE.start_L19_18_Int| Int) (|hhv_ULTIMATE.start_L19_19_Int| Int) (|hhv_ULTIMATE.start_L19_20_Int| Int) (|hhv_ULTIMATE.start_L19_21_Int| Int) (|hhv_ULTIMATE.start_L19_22_Int| Int) (|hhv_ULTIMATE.start_L19_23_Int| Int) (|hbv_ULTIMATE.start_L16-4_24_Int| Int) (|hhv_ULTIMATE.start_L19_25_Int| Int) (|hbv_ULTIMATE.start_L16-4_26_Int| Int) (|hhv_ULTIMATE.start_L19_27_Int| Int) (|hbv_ULTIMATE.start_L16-4_28_Int| Int) (|hhv_ULTIMATE.start_L19_29_Int| Int) (|hhv_ULTIMATE.start_L19_30_Int| Int) (|hhv_ULTIMATE.start_L19_31_Bool| Bool) (|.loc.4| Bool) (|.loc.5| Bool) (|.loc.6| Bool) (|hbv_ULTIMATE.start_L-1_1_Array_Int_Int| (Array Int Int)) (|.x.408| Bool) (|.x.387| Int) (|.x.385| (Array Int Int)) (|.x.383| Int) (|.x.381| (Array Int Int)) (|.x.377| Int) (|.x.379| (Array Int Int)) (|.x.403| Int) (|.x.378| (Array Int Int)) (|.x.400| Int) (|.loc.7| Bool) (|.x.405| Int) (|.x.401| Int) (|.x.390| Int) (|.x.389| Int) (|.x.396| Int) (|.x.380| (Array Int Int)) (|.x.399| Int) (|.x.406| Int) (|.loc.9| Bool) (|.loc.8| Bool) (|.x.402| Int) (|.x.391| Int) (|.x.395| Int) (|.x.407| Int) (|.x.404| Int) (|.x.398| Int) (|.x.397| Int) (|.x.394| Int) (|.x.393| Int) (|.x.392| Int) (|.x.388| Int) (|.x.386| Int) (|.x.382| Int) (|.x.384| (Array Int Int)) (|.xtv.1| (Array Int Int))) (=> (and (state |hhv_ULTIMATE.start_L19_0_Int| |hbv_ULTIMATE.start_L16-4_1_Array_Int_Int| |hhv_ULTIMATE.start_L19_2_Array_Int_Int| |hhv_ULTIMATE.start_L19_3_Array_Int_Array_Int_Int| |hhv_ULTIMATE.start_L19_4_Array_Int_Array_Int_Int| |hhv_ULTIMATE.start_L19_5_Int| |hhv_ULTIMATE.start_L19_6_Int| |hhv_ULTIMATE.start_L19_7_Array_Int_Int| |hhv_ULTIMATE.start_L19_8_Array_Int_Int| |hhv_ULTIMATE.start_L19_9_Int| |hhv_ULTIMATE.start_L19_10_Int| |hhv_ULTIMATE.start_L19_11_Int| |hbv_ULTIMATE.start_L16-4_12_Int| |hbv_ULTIMATE.start_L16-4_13_Int| |hhv_ULTIMATE.start_L19_14_Int| |hhv_ULTIMATE.start_L19_15_Int| |hhv_ULTIMATE.start_L19_16_Int| |hhv_ULTIMATE.start_L19_17_Int| |hhv_ULTIMATE.start_L19_18_Int| |hhv_ULTIMATE.start_L19_19_Int| |hhv_ULTIMATE.start_L19_20_Int| |hhv_ULTIMATE.start_L19_21_Int| |hhv_ULTIMATE.start_L19_22_Int| |hhv_ULTIMATE.start_L19_23_Int| |hbv_ULTIMATE.start_L16-4_24_Int| |hhv_ULTIMATE.start_L19_25_Int| |hbv_ULTIMATE.start_L16-4_26_Int| |hhv_ULTIMATE.start_L19_27_Int| |hbv_ULTIMATE.start_L16-4_28_Int| |hhv_ULTIMATE.start_L19_29_Int| |hhv_ULTIMATE.start_L19_30_Int| |hhv_ULTIMATE.start_L19_31_Bool| |.loc.4| |.loc.5| |.loc.6| |hbv_ULTIMATE.start_L-1_1_Array_Int_Int|) (let ((.def_46 (not .loc.5))) (let ((.def_47 (not .loc.4))) (let ((.def_49 (not .loc.6))) (let ((.def_103 (not .loc.7))) (let ((.def_107 (= hbv_ULTIMATE.start_L16-4_28_Int .x.405))) (let ((.def_109 (= hbv_ULTIMATE.start_L16-4_26_Int .x.403))) (let ((.def_112 (= hbv_ULTIMATE.start_L16-4_24_Int .x.401))) (let ((.def_114 (= hhv_ULTIMATE.start_L19_23_Int .x.400))) (let ((.def_117 (= hbv_ULTIMATE.start_L16-4_13_Int .x.390))) (let ((.def_120 (= hbv_ULTIMATE.start_L16-4_12_Int .x.389))) (let ((.def_122 (= hbv_ULTIMATE.start_L16-4_1_Array_Int_Int .x.378))) (let ((.def_126 (<= 100000 hhv_ULTIMATE.start_L19_22_Int))) (let ((.def_128 (and .loc.4 .loc.5))) (let ((.def_141 (= hhv_ULTIMATE.start_L19_19_Int .x.396))) (let ((.def_143 (= hhv_ULTIMATE.start_L19_3_Array_Int_Array_Int_Int .x.380))) (let ((.def_144 (and .def_141 .def_143))) (let ((.def_146 (= hhv_ULTIMATE.start_L19_22_Int .x.399))) (let ((.def_149 (= hhv_ULTIMATE.start_L19_29_Int .x.406))) (let ((.def_150 (and (and .def_144 .def_146) .def_149))) (let ((.def_154 (not .loc.8))) (let ((.def_188 (not .loc.9))) (let ((.def_229 (<= 100000 hhv_ULTIMATE.start_L19_25_Int))) (let ((.def_358 (store hbv_ULTIMATE.start_L-1_1_Array_Int_Int .x.390 1))) (and (and (= hhv_ULTIMATE.start_L19_31_Bool .x.408) (and (= hhv_ULTIMATE.start_L19_10_Int .x.387) (and (= hhv_ULTIMATE.start_L19_8_Array_Int_Int .x.385) (and (= hhv_ULTIMATE.start_L19_6_Int .x.383) (and (= hhv_ULTIMATE.start_L19_4_Array_Int_Array_Int_Int .x.381) (and (= hhv_ULTIMATE.start_L19_0_Int .x.377) (= hhv_ULTIMATE.start_L19_2_Array_Int_Int .x.379))))))) (or (and (or (and (or (or (or (or (and (or (or (and (and .def_46 (and .def_47 (and .loc.6 (and (or hhv_ULTIMATE.start_L19_31_Bool (and (= .x.403 0) (= (store (store hbv_ULTIMATE.start_L16-4_1_Array_Int_Int hbv_ULTIMATE.start_L16-4_13_Int 0) hbv_ULTIMATE.start_L16-4_28_Int 0) .x.378))) (or .x.408 (= .x.403 .x.400)))))) .loc.7) (and (and (and (and (and (and (and (and .def_49 (and (and .loc.5 (and hhv_ULTIMATE.start_L19_31_Bool .loc.4)) .def_103)) .def_107) .def_109) .def_112) .def_114) .def_117) .def_120) .def_122)) (and (or hhv_ULTIMATE.start_L19_31_Bool .def_126) (and .def_122 (and .def_120 (and .def_117 (and .def_114 (and .def_112 (and .def_109 (and .def_107 (and .def_49 (and .def_103 .def_128))))))))))) (and (and .def_150 .loc.9) .def_154)) (and (or hhv_ULTIMATE.start_L19_31_Bool (and (= .x.380 (store hhv_ULTIMATE.start_L19_3_Array_Int_Array_Int_Int hbv_ULTIMATE.start_L16-4_13_Int (store (select hhv_ULTIMATE.start_L19_3_Array_Int_Array_Int_Int hbv_ULTIMATE.start_L16-4_13_Int) (+ (* 4 hhv_ULTIMATE.start_L19_22_Int) hbv_ULTIMATE.start_L16-4_24_Int) (+ (select (select hhv_ULTIMATE.start_L19_3_Array_Int_Array_Int_Int hbv_ULTIMATE.start_L16-4_28_Int) (+ hbv_ULTIMATE.start_L16-4_12_Int (* 4 hhv_ULTIMATE.start_L19_22_Int))) (- 1))))) (not .def_126))) (and (or .x.408 (= (+ hhv_ULTIMATE.start_L19_22_Int (* (- 1) .x.399)) (- 1))) (and (and .def_122 (and .def_120 (and .def_117 (and .def_114 (and .def_112 (and .def_109 (and .def_107 (and .def_49 (and .loc.8 (and .loc.7 .def_128)))))))))) .def_188)))) (and (or hhv_ULTIMATE.start_L19_31_Bool (= .x.399 0)) (and .def_188 (and .def_122 (and .def_120 (and .def_117 (and .def_114 (and .def_112 (and .def_109 (and .def_107 (and .def_49 (and .loc.8 (and .loc.7 (and .def_47 (and .loc.5 (and .def_144 .def_149)))))))))))))))) (and .def_188 (and .def_122 (and .def_120 (and .def_117 (and .def_114 (and .def_112 (and .def_109 (and .def_107 (and .def_49 (and .def_103 (and .loc.8 (and .def_46 (and .loc.4 (and .def_149 (and .def_146 (and .def_141 (and hhv_ULTIMATE.start_L19_31_Bool .def_143)))))))))))))))))) (and (or hhv_ULTIMATE.start_L19_31_Bool .def_229) (and .def_188 (and .def_122 (and .def_120 (and .def_117 (and .def_114 (and .def_112 (and .def_109 (and .def_107 (and .def_49 (and .def_103 (and .loc.8 (and .def_46 (and .loc.4 .def_150))))))))))))))) (and (= hhv_ULTIMATE.start_L19_25_Int .x.402) (and (= hhv_ULTIMATE.start_L19_14_Int .x.391) (= hhv_ULTIMATE.start_L19_18_Int .x.395)))) (and (or hhv_ULTIMATE.start_L19_31_Bool (and (= .x.380 (store hhv_ULTIMATE.start_L19_3_Array_Int_Array_Int_Int hhv_ULTIMATE.start_L19_20_Int (store (select hhv_ULTIMATE.start_L19_3_Array_Int_Array_Int_Int hhv_ULTIMATE.start_L19_20_Int) (+ hhv_ULTIMATE.start_L19_16_Int (* 4 hhv_ULTIMATE.start_L19_25_Int)) (+ (select (select hhv_ULTIMATE.start_L19_3_Array_Int_Array_Int_Int hhv_ULTIMATE.start_L19_15_Int) (+ hhv_ULTIMATE.start_L19_11_Int (* 4 hhv_ULTIMATE.start_L19_25_Int))) 1)))) (not .def_229))) (and (or .x.408 (= (+ hhv_ULTIMATE.start_L19_25_Int (* (- 1) .x.402)) (- 1))) (and .def_188 (and .def_122 (and .def_120 (and .def_117 (and .def_114 (and .def_112 (and .def_109 (and .def_107 (and .def_49 (and .def_154 (and .loc.7 (and .def_46 (and .loc.4 (and .def_149 (and .def_141 .def_146)))))))))))))))))) (and (= hhv_ULTIMATE.start_L19_30_Int .x.407) (and (= hhv_ULTIMATE.start_L19_27_Int .x.404) (and (= hhv_ULTIMATE.start_L19_21_Int .x.398) (and (= hhv_ULTIMATE.start_L19_20_Int .x.397) (and (= hhv_ULTIMATE.start_L19_17_Int .x.394) (and (= hhv_ULTIMATE.start_L19_16_Int .x.393) (and (= hhv_ULTIMATE.start_L19_15_Int .x.392) (and (= hhv_ULTIMATE.start_L19_11_Int .x.388) (and (= hhv_ULTIMATE.start_L19_9_Int .x.386) (and (= hhv_ULTIMATE.start_L19_5_Int .x.382) (= hhv_ULTIMATE.start_L19_7_Array_Int_Int .x.384)))))))))))) (and (or hhv_ULTIMATE.start_L19_31_Bool (and (and (= .x.382 0) (= .x.386 0)) (= hbv_ULTIMATE.start_L-1_1_Array_Int_Int (store hbv_ULTIMATE.start_L16-4_1_Array_Int_Int 0 0)))) (and (or .x.408 (and (and (and (and (and (and (and (and (and (and (and (and (and (and (and (and (and (not (<= .x.377 .x.390)) (and (= .x.389 .x.407) (= .x.407 .x.393))) (= (select hbv_ULTIMATE.start_L-1_1_Array_Int_Int .x.390) 0)) (= .x.389 0)) (not (<= .x.377 .x.405))) (= .x.401 .x.404)) (= .x.384 (store (store hhv_ULTIMATE.start_L19_7_Array_Int_Int .x.390 400000) .x.405 400000))) (= .x.398 .x.397)) (= .x.405 .x.398)) (= .x.404 .x.388)) (= (select .def_358 .x.405) 0)) (= .x.394 .x.392)) (= .x.390 .x.394)) (not (= .x.405 0))) (= .x.402 0)) (= .x.401 0)) (= .x.378 (store .def_358 .x.405 1))) (not (= .x.390 0)))) (and .def_188 (and .def_114 (and .def_49 (and .def_154 (and .loc.7 (and .def_46 (and .def_47 .def_143))))))))))))))))))))))))))))))))))) (state |.x.377| |.x.378| |.x.379| |.x.380| |.x.381| |.x.382| |.x.383| |.x.384| |.x.385| |.x.386| |.x.387| |.x.388| |.x.389| |.x.390| |.x.391| |.x.392| |.x.393| |.x.394| |.x.395| |.x.396| |.x.397| |.x.398| |.x.399| |.x.400| |.x.401| |.x.402| |.x.403| |.x.404| |.x.405| |.x.406| |.x.407| |.x.408| |.loc.7| |.loc.8| |.loc.9| |.xtv.1|))))
(assert (forall ((|hhv_ULTIMATE.start_L19_0_Int| Int) (|hbv_ULTIMATE.start_L16-4_1_Array_Int_Int| (Array Int Int)) (|hhv_ULTIMATE.start_L19_2_Array_Int_Int| (Array Int Int)) (|hhv_ULTIMATE.start_L19_3_Array_Int_Array_Int_Int| (Array Int Int)) (|hhv_ULTIMATE.start_L19_4_Array_Int_Array_Int_Int| (Array Int Int)) (|hhv_ULTIMATE.start_L19_5_Int| Int) (|hhv_ULTIMATE.start_L19_6_Int| Int) (|hhv_ULTIMATE.start_L19_7_Array_Int_Int| (Array Int Int)) (|hhv_ULTIMATE.start_L19_8_Array_Int_Int| (Array Int Int)) (|hhv_ULTIMATE.start_L19_9_Int| Int) (|hhv_ULTIMATE.start_L19_10_Int| Int) (|hhv_ULTIMATE.start_L19_11_Int| Int) (|hbv_ULTIMATE.start_L16-4_12_Int| Int) (|hbv_ULTIMATE.start_L16-4_13_Int| Int) (|hhv_ULTIMATE.start_L19_14_Int| Int) (|hhv_ULTIMATE.start_L19_15_Int| Int) (|hhv_ULTIMATE.start_L19_16_Int| Int) (|hhv_ULTIMATE.start_L19_17_Int| Int) (|hhv_ULTIMATE.start_L19_18_Int| Int) (|hhv_ULTIMATE.start_L19_19_Int| Int) (|hhv_ULTIMATE.start_L19_20_Int| Int) (|hhv_ULTIMATE.start_L19_21_Int| Int) (|hhv_ULTIMATE.start_L19_22_Int| Int) (|hhv_ULTIMATE.start_L19_23_Int| Int) (|hbv_ULTIMATE.start_L16-4_24_Int| Int) (|hhv_ULTIMATE.start_L19_25_Int| Int) (|hbv_ULTIMATE.start_L16-4_26_Int| Int) (|hhv_ULTIMATE.start_L19_27_Int| Int) (|hbv_ULTIMATE.start_L16-4_28_Int| Int) (|hhv_ULTIMATE.start_L19_29_Int| Int) (|hhv_ULTIMATE.start_L19_30_Int| Int) (|hhv_ULTIMATE.start_L19_31_Bool| Bool) (|.loc.4| Bool) (|.loc.5| Bool) (|.loc.6| Bool) (|hbv_ULTIMATE.start_L-1_1_Array_Int_Int| (Array Int Int)) (|.x.408| Bool) (|.x.387| Int) (|.x.385| (Array Int Int)) (|.x.383| Int) (|.x.381| (Array Int Int)) (|.x.377| Int) (|.x.379| (Array Int Int)) (|.x.403| Int) (|.x.378| (Array Int Int)) (|.x.400| Int) (|.loc.7| Bool) (|.x.405| Int) (|.x.401| Int) (|.x.390| Int) (|.x.389| Int) (|.x.396| Int) (|.x.380| (Array Int Int)) (|.x.399| Int) (|.x.406| Int) (|.loc.9| Bool) (|.loc.8| Bool) (|.x.402| Int) (|.x.391| Int) (|.x.395| Int) (|.x.407| Int) (|.x.404| Int) (|.x.398| Int) (|.x.397| Int) (|.x.394| Int) (|.x.393| Int) (|.x.392| Int) (|.x.388| Int) (|.x.386| Int) (|.x.382| Int) (|.x.384| (Array Int Int)) (|.xtv.1| (Array Int Int))) (=> (state |hhv_ULTIMATE.start_L19_0_Int| |hbv_ULTIMATE.start_L16-4_1_Array_Int_Int| |hhv_ULTIMATE.start_L19_2_Array_Int_Int| |hhv_ULTIMATE.start_L19_3_Array_Int_Array_Int_Int| |hhv_ULTIMATE.start_L19_4_Array_Int_Array_Int_Int| |hhv_ULTIMATE.start_L19_5_Int| |hhv_ULTIMATE.start_L19_6_Int| |hhv_ULTIMATE.start_L19_7_Array_Int_Int| |hhv_ULTIMATE.start_L19_8_Array_Int_Int| |hhv_ULTIMATE.start_L19_9_Int| |hhv_ULTIMATE.start_L19_10_Int| |hhv_ULTIMATE.start_L19_11_Int| |hbv_ULTIMATE.start_L16-4_12_Int| |hbv_ULTIMATE.start_L16-4_13_Int| |hhv_ULTIMATE.start_L19_14_Int| |hhv_ULTIMATE.start_L19_15_Int| |hhv_ULTIMATE.start_L19_16_Int| |hhv_ULTIMATE.start_L19_17_Int| |hhv_ULTIMATE.start_L19_18_Int| |hhv_ULTIMATE.start_L19_19_Int| |hhv_ULTIMATE.start_L19_20_Int| |hhv_ULTIMATE.start_L19_21_Int| |hhv_ULTIMATE.start_L19_22_Int| |hhv_ULTIMATE.start_L19_23_Int| |hbv_ULTIMATE.start_L16-4_24_Int| |hhv_ULTIMATE.start_L19_25_Int| |hbv_ULTIMATE.start_L16-4_26_Int| |hhv_ULTIMATE.start_L19_27_Int| |hbv_ULTIMATE.start_L16-4_28_Int| |hhv_ULTIMATE.start_L19_29_Int| |hhv_ULTIMATE.start_L19_30_Int| |hhv_ULTIMATE.start_L19_31_Bool| |.loc.4| |.loc.5| |.loc.6| |hbv_ULTIMATE.start_L-1_1_Array_Int_Int|) (not (and hhv_ULTIMATE.start_L19_31_Bool (and .loc.6 (and .loc.4 (not .loc.5))))))))
(check-sat)
